(declare-fun c () String)
(declare-fun g () String)
(declare-fun b () String)
(declare-fun d () String)
(declare-fun f () String)
(declare-fun a () String)
(declare-fun h () String)
(assert (= g (str.++ "fg" h a "g" h)))
(assert (= (str.++ "cd" b) (str.++ f c a g)))
(assert (= (str.++ c "c") (str.++ "a" d)))

(check-sat)
